Running for instance ./models/r111.txt
Generating routes...
Execution time:  0.444655383333  minutes
Academic license - for non-commercial use only
Warning: constraint name "Cliente esta na rota" has a space
Optimize a model with 26 rows, 5000 columns and 29770 nonzeros
Variable types: 0 continuous, 5000 integer (0 binary)
Coefficient statistics:
  Matrix range     [1e+00, 1e+00]
  Objective range  [4e+01, 2e+02]
  Bounds range     [1e+00, 1e+00]
  RHS range        [1e+00, 2e+01]
Found heuristic solution: objective 972.0954403
Presolve removed 0 rows and 2054 columns
Presolve time: 0.03s
Presolved: 26 rows, 2946 columns, 17633 nonzeros
Found heuristic solution: objective 740.6474234
Variable types: 0 continuous, 2946 integer (2946 binary)

Root relaxation: objective 5.029081e+02, 94 iterations, 0.00 seconds

    Nodes    |    Current Node    |     Objective Bounds      |     Work
 Expl Unexpl |  Obj  Depth IntInf | Incumbent    BestBd   Gap | It/Node Time

*    0     0               0     502.9080746  502.90807  0.00%     -    0s

Explored 0 nodes (94 simplex iterations) in 0.04 seconds
Thread count was 8 (of 8 available processors)

Solution count 2: 502.908 740.647 

Optimal solution found (tolerance 1.00e-04)
Best objective 5.029080746178e+02, best bound 5.029080746178e+02, gap 0.0000%
7 19 11
1 9 20 3
15 14 16
12 21 23 22 4
18 8 6 5 13
Distance: 502.908074618
Execution time:  0.4509003  minutes
